 W  C 
 1.0000000000000000
     2.8517848539999999   -0.0000051690000000    0.0000000000000000
    -1.4258969379999999    2.4690074879999999    0.0000000000000000
     0.0000000000000000    0.0000000000000000   19.4643531779999996
 W   C  
   2   1
Cartesian
 -0.1303114530000000  1.4205278214999999  8.3908146749999997
  1.2956092984000001  0.5972503684000000 11.0735937657000001
  1.2955923362999999  2.2433900410000001  9.7322244422999997
